p cnf 20 60
-1 -4 -3 -6 0
-2 -4 -3 -5 0
-1 -2 -5 -6 0
-1 -7 -3 -9 0
-2 -7 -3 -8 0
-1 -2 -8 -9 0
-1 -7 -5 -10 0
-4 -7 -5 -8 0
-1 -4 -8 -10 0
-2 -7 -6 -10 0
-4 -7 -6 -9 0
-2 -4 -9 -10 0
-3 -8 -6 -10 0
-5 -8 -6 -9 0
-3 -5 -9 -10 0
1 -11 0
3 -11 0
2 -11 0
-1 -3 -2 11 0
1 -12 0
5 -12 0
4 -12 0
-1 -5 -4 12 0
1 -13 0
8 -13 0
7 -13 0
-1 -8 -7 13 0
2 -14 0
6 -14 0
4 -14 0
-2 -6 -4 14 0
2 -15 0
9 -15 0
7 -15 0
-2 -9 -7 15 0
4 -16 0
10 -16 0
7 -16 0
-4 -10 -7 16 0
3 -17 0
6 -17 0
5 -17 0
-3 -6 -5 17 0
3 -18 0
9 -18 0
8 -18 0
-3 -9 -8 18 0
5 -19 0
10 -19 0
8 -19 0
-5 -10 -8 19 0
6 -20 0
10 -20 0
9 -20 0
-6 -10 -9 20 0
11 12 13 14 15 16 0
11 12 13 17 18 19 0
11 14 15 17 18 20 0
12 14 16 17 19 20 0
13 15 16 18 19 20 0
